NAME : expansion
TYPE : TSP
DIMENSION : 50
EDGE_WEIGHT_TYPE : EUC_2D
NODE_COORD_SECTION
1 737961 634620
2 920919 471330
3 828564 466901
4 610936 536811
5 283400 657227
6 693652 615243
7 758761 619999
8 790976 670620
9 929161 546122
10 613945 371885
11 729687 560695
12 588923 516943
13 710472 509151
14 735727 508679
15 964535 608678
16 956238 695273
17 835041 507786
18 590622 425897
19 338161 168296
20 552105 462077
21 698891 98002
22 857866 559142
23 784541 489172
24 863196 776429
25 739038 481474
26 837464 639419
27 744663 609064
28 619433 488561
29 776070 649940
30 586395 473487
31 385001 226609
32 672915 581053
33 619132 360678
34 753010 635690
35 572316 668777
36 413834 826850
37 815849 509521
38 823008 132296
39 850866 685850
40 874058 639524
41 830243 519142
42 702791 619783
43 771093 537339
44 644980 473708
45 955630 733609
46 531759 479647
47 830319 567567
48 792228 628130
49 681925 372736
50 836879 521091
EOF
